
Log started (V11.0.0) Sat May 17 19:55:47 2008

Tried aggregator 1 time.
Reduced MIP has 150 rows, 5001 columns, and 10050 nonzeros.
Presolve time =    0.05 sec.
Clique table members: 100.
MIP emphasis: balance optimality and feasibility.
MIP search method: dynamic search.
Parallel mode: none, using 1 thread.
Root relaxation solution time =    0.33 sec.

        Nodes                                         Cuts/
   Node  Left     Objective  IInf  Best Integer     Best Node    ItCnt     Gap

*     0+    0                       104422.0000     2004.0768      459   98.08%
*     0+    0                         2013.0000     2004.0768      459    0.44%
      0     0     2011.9836    64     2013.0000      Fract: 5      538    0.05%
      0     0        cutoff           2013.0000      Cuts: 10      538    0.00%

Clique cuts applied:  1
Cover cuts applied:  1
Implied bound cuts applied:  7
Mixed integer rounding cuts applied:  1
Gomory fractional cuts applied:  1

Solution pool: 2 solutions saved.

MIP - Integer optimal solution:  Objective = 2.0130000000e+003
Solution time =    0.61 sec.  Iterations = 538  Nodes = 0


Incumbent solution
Variable Name           Solution Value
Cmax                       2013.000000
X_1_29                        1.000000
X_2_35                        1.000000
X_3_18                        1.000000
X_4_1                         1.000000
X_5_10                        1.000000
X_6_50                        1.000000
X_7_17                        1.000000
X_8_41                        1.000000
X_9_26                        1.000000
X_10_20                       1.000000
X_11_39                       1.000000
X_12_44                       1.000000
X_13_46                       1.000000
X_14_22                       1.000000
X_15_4                        1.000000
X_16_8                        1.000000
X_17_2                        1.000000
X_18_9                        1.000000
X_19_27                       1.000000
X_20_10                       1.000000
X_21_13                       1.000000
X_22_15                       1.000000
X_23_33                       1.000000
X_24_16                       1.000000
X_25_5                        1.000000
X_26_2                        1.000000
X_27_17                       1.000000
X_28_30                       1.000000
X_29_40                       1.000000
X_30_28                       1.000000
X_31_32                       1.000000
X_32_27                       1.000000
X_33_49                       1.000000
X_34_36                       1.000000
X_35_43                       1.000000
X_36_13                       1.000000
X_37_45                       1.000000
X_38_37                       1.000000
X_39_44                       1.000000
X_40_48                       1.000000
X_41_19                       1.000000
X_42_38                       1.000000
X_43_21                       1.000000
X_44_37                       1.000000
X_45_21                       1.000000
X_46_35                       1.000000
X_47_12                       1.000000
X_48_19                       1.000000
X_49_43                       1.000000
X_50_8                        1.000000
X_51_18                       1.000000
X_52_28                       1.000000
X_53_24                       1.000000
X_54_34                       1.000000
X_55_6                        1.000000
X_56_22                       1.000000
X_57_7                        1.000000
X_58_15                       1.000000
X_59_34                       1.000000
X_60_5                        1.000000
X_61_23                       1.000000
X_62_45                       1.000000
X_63_47                       1.000000
X_64_26                       1.000000
X_65_7                        1.000000
X_66_39                       1.000000
X_67_40                       1.000000
X_68_3                        1.000000
X_69_1                        1.000000
X_70_38                       1.000000
X_71_42                       1.000000
X_72_25                       1.000000
X_73_23                       1.000000
X_74_36                       1.000000
X_75_50                       1.000000
X_76_49                       1.000000
X_77_31                       1.000000
X_78_11                       1.000000
X_79_30                       1.000000
X_80_48                       1.000000
X_81_3                        1.000000
X_82_41                       1.000000
X_83_14                       1.000000
X_84_31                       1.000000
X_85_33                       1.000000
X_86_9                        1.000000
X_87_29                       1.000000
X_88_6                        1.000000
X_89_11                       1.000000
X_90_24                       1.000000
X_91_46                       1.000000
X_92_47                       1.000000
X_93_32                       1.000000
X_94_42                       1.000000
X_95_16                       1.000000
X_96_20                       1.000000
X_97_14                       1.000000
X_98_25                       1.000000
X_99_12                       1.000000
X_100_4                       1.000000
All other variables in the range 1-5001 are 0.
